solution status: optimal solution found
objective value:                     203769.281606789
d11(0,0)                                            1 	(obj:0)
d11(1,1)                                            1 	(obj:0)
d11(1,2)                                            1 	(obj:0)
d11(1,3)                                            1 	(obj:0)
d11(2,4)                                            1 	(obj:0)
d11(2,5)                                            1 	(obj:0)
d11(2,7)                                            1 	(obj:0)
d11(2,8)                                            1 	(obj:0)
d11(2,10)                                           1 	(obj:0)
d11(3,13)                                           1 	(obj:0)
d11(3,16)                                           1 	(obj:0)
d11(3,19)                                           1 	(obj:0)
d11(3,20)                                           1 	(obj:0)
d11(3,22)                                           1 	(obj:0)
d11(3,25)                                           1 	(obj:0)
d11(3,26)                                           1 	(obj:0)
d11(3,28)                                           1 	(obj:0)
d11(3,31)                                           1 	(obj:0)
d11(3,34)                                           1 	(obj:0)
d11(3,37)                                           1 	(obj:0)
d11(4,40)                                           1 	(obj:0)
d11(4,41)                                           1 	(obj:0)
d11(4,43)                                           1 	(obj:0)
d11(4,44)                                           1 	(obj:0)
d11(4,46)                                           1 	(obj:0)
d11(4,47)                                           1 	(obj:0)
d11(4,49)                                           1 	(obj:0)
d11(4,50)                                           1 	(obj:0)
d11(4,51)                                           1 	(obj:0)
d11(4,52)                                           1 	(obj:0)
d11(4,53)                                           1 	(obj:0)
d11(4,55)                                           1 	(obj:0)
d11(4,56)                                           1 	(obj:0)
d11(4,58)                                           1 	(obj:0)
d11(4,59)                                           1 	(obj:0)
d11(4,61)                                           1 	(obj:0)
d11(4,62)                                           1 	(obj:0)
d11(4,64)                                           1 	(obj:0)
d11(4,65)                                           1 	(obj:0)
d11(4,67)                                           1 	(obj:0)
d11(4,68)                                           1 	(obj:0)
d11(4,70)                                           1 	(obj:0)
d11(4,71)                                           1 	(obj:0)
d11(4,72)                                           1 	(obj:0)
d11(4,73)                                           1 	(obj:0)
d11(4,74)                                           1 	(obj:0)
d11(4,76)                                           1 	(obj:0)
d11(4,77)                                           1 	(obj:0)
d11(4,79)                                           1 	(obj:0)
d11(4,80)                                           1 	(obj:0)
d11(4,82)                                           1 	(obj:0)
d11(4,83)                                           1 	(obj:0)
d11(4,85)                                           1 	(obj:0)
d11(4,86)                                           1 	(obj:0)
d11(4,88)                                           1 	(obj:0)
d11(4,89)                                           1 	(obj:0)
d11(4,91)                                           1 	(obj:0)
d11(4,92)                                           1 	(obj:0)
d11(4,94)                                           1 	(obj:0)
d11(4,95)                                           1 	(obj:0)
d11(4,96)                                           1 	(obj:0)
d11(4,97)                                           1 	(obj:0)
d11(4,98)                                           1 	(obj:0)
d11(4,100)                                          1 	(obj:0)
d11(4,101)                                          1 	(obj:0)
d11(4,103)                                          1 	(obj:0)
d11(4,104)                                          1 	(obj:0)
d11(4,106)                                          1 	(obj:0)
d11(4,107)                                          1 	(obj:0)
d11(4,109)                                          1 	(obj:0)
d11(4,110)                                          1 	(obj:0)
d11(4,112)                                          1 	(obj:0)
d11(4,113)                                          1 	(obj:0)
d11(4,115)                                          1 	(obj:0)
d11(4,116)                                          1 	(obj:0)
d11(4,117)                                          1 	(obj:0)
d11(4,118)                                          1 	(obj:0)
d11(4,119)                                          1 	(obj:0)
d11(4,120)                                          1 	(obj:0)
d12(2,6)                                            1 	(obj:0)
d12(2,9)                                            1 	(obj:0)
d12(2,12)                                           1 	(obj:0)
d12(3,15)                                           1 	(obj:0)
d12(3,18)                                           1 	(obj:0)
d12(3,21)                                           1 	(obj:0)
d12(3,24)                                           1 	(obj:0)
d12(3,27)                                           1 	(obj:0)
d12(3,30)                                           1 	(obj:0)
d12(3,33)                                           1 	(obj:0)
d12(3,36)                                           1 	(obj:0)
d12(3,39)                                           1 	(obj:0)
d21(3,13)                                           1 	(obj:0)
d21(4,40)                                           1 	(obj:0)
d21(4,41)                                           1 	(obj:0)
d21(4,42)                                           1 	(obj:0)
d21(4,43)                                           1 	(obj:0)
d21(4,44)                                           1 	(obj:0)
d21(4,45)                                           1 	(obj:0)
d21(4,46)                                           1 	(obj:0)
d21(4,47)                                           1 	(obj:0)
d21(4,49)                                           1 	(obj:0)
d21(4,50)                                           1 	(obj:0)
d21(4,51)                                           1 	(obj:0)
d21(4,52)                                           1 	(obj:0)
d21(4,53)                                           1 	(obj:0)
d21(4,55)                                           1 	(obj:0)
d21(4,56)                                           1 	(obj:0)
d21(4,58)                                           1 	(obj:0)
d21(4,59)                                           1 	(obj:0)
d21(4,61)                                           1 	(obj:0)
d21(4,62)                                           1 	(obj:0)
d21(4,64)                                           1 	(obj:0)
d21(4,67)                                           1 	(obj:0)
d21(4,68)                                           1 	(obj:0)
d21(4,69)                                           1 	(obj:0)
d21(4,70)                                           1 	(obj:0)
d21(4,71)                                           1 	(obj:0)
d21(4,73)                                           1 	(obj:0)
d21(4,76)                                           1 	(obj:0)
d21(4,77)                                           1 	(obj:0)
d21(4,79)                                           1 	(obj:0)
d21(4,82)                                           1 	(obj:0)
d21(4,85)                                           1 	(obj:0)
d21(4,86)                                           1 	(obj:0)
d21(4,94)                                           1 	(obj:0)
d21(4,95)                                           1 	(obj:0)
d21(4,97)                                           1 	(obj:0)
d21(4,103)                                          1 	(obj:0)
STE(1,1)                             7234.88886948334 	(obj:0)
STE(0,0)                                        15750 	(obj:0)
STE(1,2)                             8231.65487281663 	(obj:0)
STE(1,3)                             9449.10707615001 	(obj:0)
STE(2,4)                             4978.12286615007 	(obj:0)
STE(2,5)                             5974.88886948336 	(obj:0)
STE(2,6)                             6887.45220333334 	(obj:0)
STE(2,7)                             5974.88886948336 	(obj:0)
STE(2,8)                             6971.65487281663 	(obj:0)
STE(2,9)                             7884.21820666664 	(obj:0)
STE(2,10)                            7192.34107281674 	(obj:0)
STE(2,11)                            8189.10707615001 	(obj:0)
STE(2,12)                            9101.67041000001 	(obj:0)
STE(3,13)                            2721.35686281672 	(obj:0)
STE(3,14)                            3718.12286615007 	(obj:0)
STE(3,15)                            4630.68620000005 	(obj:0)
STE(3,16)                            3718.12286615001 	(obj:0)
STE(3,17)                            4714.88886948336 	(obj:0)
STE(3,18)                            5627.45220333334 	(obj:0)
STE(3,19)                            4630.68619999999 	(obj:0)
STE(3,20)                            5627.45220333328 	(obj:0)
STE(3,21)                            6540.01553718333 	(obj:0)
STE(3,22)                            3718.12286615001 	(obj:0)
STE(3,23)                            4714.88886948336 	(obj:0)
STE(3,24)                            5627.45220333334 	(obj:0)
STE(3,25)                            4714.88886948328 	(obj:0)
STE(3,26)                            5711.65487281657 	(obj:0)
STE(3,27)                            6624.21820666662 	(obj:0)
STE(3,28)                            5627.45220333329 	(obj:0)
STE(3,29)                            6624.21820666664 	(obj:0)
STE(3,30)                            7536.78154051662 	(obj:0)
STE(3,31)                            4935.57506948339 	(obj:0)
STE(3,32)                            5932.34107281674 	(obj:0)
STE(3,33)                            6844.90440666672 	(obj:0)
STE(3,34)                            5932.34107281666 	(obj:0)
STE(3,35)                            6929.10707615001 	(obj:0)
STE(3,36)                            7841.67040999999 	(obj:0)
STE(3,37)                            6844.90440666666 	(obj:0)
STE(3,38)                            7841.67041000001 	(obj:0)
STE(3,39)                               8754.23374385 	(obj:0)
STE(4,40)                           -752.861343849919 	(obj:0)
STE(4,41)                            243.904659483372 	(obj:0)
STE(4,42)                            1461.35686281672 	(obj:0)
STE(4,43)                            243.904659483431 	(obj:0)
STE(4,44)                            1240.67066281672 	(obj:0)
STE(4,45)                            2458.12286615007 	(obj:0)
STE(4,46)                            1156.46799333342 	(obj:0)
STE(4,47)                            2153.23399666671 	(obj:0)
STE(4,48)                            3370.68620000005 	(obj:0)
STE(4,49)                            243.904659483373 	(obj:0)
STE(4,50)                            1240.67066281666 	(obj:0)
STE(4,51)                            2458.12286615004 	(obj:0)
STE(4,52)                            1240.67066281672 	(obj:0)
STE(4,53)                            2237.43666615001 	(obj:0)
STE(4,54)                            3454.88886948336 	(obj:0)
STE(4,55)                            2153.23399666671 	(obj:0)
STE(4,56)                                        3150 	(obj:0)
STE(4,57)                            4367.45220333334 	(obj:0)
STE(4,58)                            1156.46799333336 	(obj:0)
STE(4,59)                            2153.23399666665 	(obj:0)
STE(4,60)                            3370.68619999999 	(obj:0)
STE(4,61)                            2153.23399666665 	(obj:0)
STE(4,62)                            3149.99999999994 	(obj:0)
STE(4,63)                            4367.45220333328 	(obj:0)
STE(4,64)                             3065.7973305167 	(obj:0)
STE(4,65)                            4062.56333384999 	(obj:0)
STE(4,66)                            5280.01553718333 	(obj:0)
STE(4,67)                            243.904659483373 	(obj:0)
STE(4,68)                            1240.67066281666 	(obj:0)
STE(4,69)                            2458.12286615001 	(obj:0)
STE(4,70)                            1240.67066281672 	(obj:0)
STE(4,71)                            2237.43666615001 	(obj:0)
STE(4,72)                            3454.88886948339 	(obj:0)
STE(4,73)                            2153.23399666671 	(obj:0)
STE(4,74)                                        3150 	(obj:0)
STE(4,75)                            4367.45220333334 	(obj:0)
STE(4,76)                            1240.67066281664 	(obj:0)
STE(4,77)                            2237.43666614994 	(obj:0)
STE(4,78)                            3454.88886948328 	(obj:0)
STE(4,79)                            2237.43666614994 	(obj:0)
STE(4,80)                            3234.20266948323 	(obj:0)
STE(4,81)                            4451.65487281657 	(obj:0)
STE(4,82)                            3149.99999999998 	(obj:0)
STE(4,83)                            4146.76600333327 	(obj:0)
STE(4,84)                            5364.21820666662 	(obj:0)
STE(4,85)                            2153.23399666665 	(obj:0)
STE(4,86)                            3149.99999999994 	(obj:0)
STE(4,87)                            4367.45220333329 	(obj:0)
STE(4,88)                                        3150 	(obj:0)
STE(4,89)                            4146.76600333329 	(obj:0)
STE(4,90)                            5364.21820666664 	(obj:0)
STE(4,91)                            4062.56333384999 	(obj:0)
STE(4,92)                            5059.32933718328 	(obj:0)
STE(4,93)                            6276.78154051662 	(obj:0)
STE(4,94)                            1461.35686281675 	(obj:0)
STE(4,95)                            2458.12286615004 	(obj:0)
STE(4,96)                            3675.57506948342 	(obj:0)
STE(4,97)                             2458.1228661501 	(obj:0)
STE(4,98)                            3454.88886948339 	(obj:0)
STE(4,99)                            4672.34107281674 	(obj:0)
STE(4,100)                           3370.68620000009 	(obj:0)
STE(4,101)                           4367.45220333338 	(obj:0)
STE(4,102)                           5584.90440666672 	(obj:0)
STE(4,103)                           2458.12286615002 	(obj:0)
STE(4,104)                           3454.88886948331 	(obj:0)
STE(4,105)                           4672.34107281666 	(obj:0)
STE(4,106)                           3454.88886948337 	(obj:0)
STE(4,107)                           4451.65487281666 	(obj:0)
STE(4,108)                           5669.10707615001 	(obj:0)
STE(4,109)                           4367.45220333336 	(obj:0)
STE(4,110)                           5364.21820666665 	(obj:0)
STE(4,111)                           6581.67040999999 	(obj:0)
STE(4,112)                           3370.68620000003 	(obj:0)
STE(4,113)                           4367.45220333332 	(obj:0)
STE(4,114)                           5584.90440666666 	(obj:0)
STE(4,115)                           4367.45220333338 	(obj:0)
STE(4,116)                           5364.21820666667 	(obj:0)
STE(4,117)                           6581.67041000005 	(obj:0)
STE(4,118)                           5280.01553718336 	(obj:0)
STE(4,119)                           6276.78154051666 	(obj:0)
STE(4,120)                           7494.23374385003 	(obj:0)
y1(4,100)                            1992.79638599997 	(obj:0)
y1(4,101)                            1095.70698300001 	(obj:0)
y1(4,103)                            1992.79638599997 	(obj:0)
y1(4,104)                            1095.70698300001 	(obj:0)
y1(4,106)                            1992.79638599997 	(obj:0)
y1(4,107)                            1095.70698300001 	(obj:0)
y1(4,109)                            1992.79638599997 	(obj:0)
y1(4,110)                            1095.70698300001 	(obj:0)
y1(4,112)                            1992.79638599997 	(obj:0)
y1(4,113)                            1095.70698300001 	(obj:0)
y1(4,115)                            1992.79638599997 	(obj:0)
y1(4,116)                            1095.70698300001 	(obj:0)
y1(4,118)                            1992.79638599997 	(obj:0)
y1(4,119)                            1095.70698300001 	(obj:0)
WB(3)                                 3399.3204933139 	(obj:0)
AVE(3)                                3399.3204933139 	(obj:0)
AVE(4)                               3353.21046544222 	(obj:0)
WG(2)                            1.69848135556094e-009 	(obj:10)
WG(4)                                3353.21046544222 	(obj:10)
BG(1)                                9125.30981067855 	(obj:10)
BG(2)                                3377.84999999828 	(obj:10)
BG(3)                                         3377.85 	(obj:10)
BG(4)                                1142.70788455778 	(obj:10)
WB(1)                                3134.60043707458 	(obj:0)
AVE(1)                               3134.60043707458 	(obj:0)
WB(2)                                3326.45170866473 	(obj:0)
AVE(2)                               3326.45170866643 	(obj:0)
y1(1,1)                                6529.600017465 	(obj:0)
y1(1,2)                              5632.51061446503 	(obj:0)
y1(1,3)                              4536.80363146499 	(obj:0)
y1(2,4)                              897.089402999944 	(obj:0)
y1(2,7)                              897.089402999944 	(obj:0)
y1(2,10)                             897.089402999944 	(obj:0)
y1(3,13)                             897.089403000015 	(obj:0)
y1(3,16)                             897.089403000015 	(obj:0)
y1(3,19)                             897.089403000015 	(obj:0)
y1(3,22)                             897.089403000015 	(obj:0)
y1(3,25)                             897.089403000015 	(obj:0)
y1(3,28)                             897.089403000015 	(obj:0)
y1(3,31)                             897.089403000015 	(obj:0)
y1(3,34)                             897.089403000015 	(obj:0)
y1(3,37)                             897.089403000015 	(obj:0)
y1(4,40)                             1992.79638599997 	(obj:0)
y1(4,41)                             1095.70698300001 	(obj:0)
y1(4,43)                             1992.79638599997 	(obj:0)
y1(4,44)                             1095.70698300001 	(obj:0)
y1(4,46)                             1992.79638599997 	(obj:0)
y1(4,47)                             1095.70698300001 	(obj:0)
y1(4,49)                             1992.79638599997 	(obj:0)
y1(4,50)                             1095.70698300001 	(obj:0)
y1(4,52)                             1992.79638599997 	(obj:0)
y1(4,53)                             1095.70698300001 	(obj:0)
y1(4,55)                             1992.79638599997 	(obj:0)
y1(4,56)                             1095.70698300001 	(obj:0)
y1(4,58)                             1992.79638599997 	(obj:0)
y1(4,59)                             1095.70698300001 	(obj:0)
y1(4,61)                             1992.79638599997 	(obj:0)
y1(4,62)                             1095.70698300001 	(obj:0)
y1(4,64)                             1992.79638599997 	(obj:0)
y1(4,65)                             1095.70698300001 	(obj:0)
y1(4,67)                             1992.79638599997 	(obj:0)
y1(4,68)                             1095.70698300001 	(obj:0)
y1(4,70)                             1992.79638599997 	(obj:0)
y1(4,71)                             1095.70698300001 	(obj:0)
y1(4,73)                             1992.79638599997 	(obj:0)
y1(4,74)                             1095.70698300001 	(obj:0)
y1(4,76)                             1992.79638599997 	(obj:0)
y1(4,77)                             1095.70698300001 	(obj:0)
y1(4,79)                             1992.79638599997 	(obj:0)
y1(4,80)                             1095.70698300001 	(obj:0)
y1(4,82)                             1992.79638599997 	(obj:0)
y1(4,83)                             1095.70698300001 	(obj:0)
y1(4,85)                             1992.79638599997 	(obj:0)
y1(4,86)                             1095.70698300001 	(obj:0)
y1(4,88)                             1992.79638599997 	(obj:0)
y1(4,89)                             1095.70698300001 	(obj:0)
y1(4,91)                             1992.79638599997 	(obj:0)
y1(4,92)                             1095.70698300001 	(obj:0)
y1(4,94)                             1992.79638599997 	(obj:0)
y1(4,95)                             1095.70698300001 	(obj:0)
y1(4,97)                             1992.79638599997 	(obj:0)
y1(4,98)                             1095.70698300001 	(obj:0)
y2(2,6)                              960.592983000005 	(obj:0)
y2(2,9)                              960.592983000006 	(obj:0)
y2(2,12)                             960.592983000005 	(obj:0)
y2(3,15)                             960.592982999986 	(obj:0)
y2(3,18)                             960.592982999986 	(obj:0)
y2(3,21)                             960.592982999986 	(obj:0)
y2(3,24)                             960.592982999986 	(obj:0)
y2(3,27)                             960.592982999986 	(obj:0)
y2(3,30)                             960.592982999986 	(obj:0)
y2(3,33)                             960.592982999986 	(obj:0)
y2(3,36)                             960.592982999986 	(obj:0)
y2(3,39)                             960.592982999986 	(obj:0)
